Optimal - objective value 3.00000000
      0 x_0_0                    1                       0
      1 x_1_0                    0                       0
      2 x_1_1                    1                       1
      3 x_2_0                    0                      -1
      4 x_2_1                    0                      -1
      5 x_2_2                    1                       0
      6 x_3_0                    1                       0
      7 x_3_1                    0                       0
      8 x_3_2                    0                       0
      9 x_3_3                    0                       1
     10 x_4_0                    0                       0
     11 x_4_1                    0                       0
     12 x_4_2                    1                       0
     13 x_4_3                    0                       0
     14 x_4_4                    0                       1
